************************************************************************
file with basedata            : mm53_.bas
initial value random generator: 564008290
************************************************************************
projects                      :  1
jobs (incl. supersource/sink ):  12
horizon                       :  82
RESOURCES
  - renewable                 :  2   R
  - nonrenewable              :  2   N
  - doubly constrained        :  0   D
************************************************************************
PROJECT INFORMATION:
pronr.  #jobs rel.date duedate tardcost  MPM-Time
    1     10      0       17        6       17
************************************************************************
PRECEDENCE RELATIONS:
jobnr.    #modes  #successors   successors
   0        1          3           1   2   3
   1        3          2           4  10
   2        3          2           6  10
   3        3          2           4   5
   4        3          1           6
   5        3          2           6  10
   6        3          2           7   8
   7        3          1           9
   8        3          1          11
   9        3          1          11
  10        3          1          11
  11        1          0        
************************************************************************
REQUESTS/DURATIONS:
jobnr. mode duration  R 1  R 2  R 3  R 4  E(W 1)  E(W 2)  E(W 3)
------------------------------------------------------------------------
  0      1     0       0    0    0    0     0       0       0
  1      1     2       6    4   10   10    20      20      20
  2      1     9       6    9    7   10    135      63      90
  3      1     3      10    8   10    5    54      30      15
  4      1     1       9    8    8    4    17       8       4
  5      1     4       5   10    8    5    60      32      20
  6      1     2       6    2    6   10    16      12      20
  7      1     1      10    4    8    3    14       8       3
  8      1     6       9   10    8    3    114      48      18
  9      1     5       9    5   10    5    70      50      25
 10      1     3       4    3    2    4    21       6      12
 11      1     0       0    0    0    0     0       0       0
************************************************************************
RESOURCEAVAILABILITIES:
  R 1  R 2  R 3
   41   59   43
************************************************************************
RESOURCE LIMITS:
jobnr.  l(R 1)  u(R 1)  l(R 2)  u(R 2)  l(R 3)  u(R 3)
------------------------------------------------------------------------
  0        0       0       0       0       0       0
  1        5      10       5      10       5      10
  2        8      15       4       7       5      10
  3        9      18       5      10       3       5
  4        9      17       4       8       2       4
  5        8      15       4       8       3       5
  6        4       8       3       6       5      10
  7        7      14       4       8       2       3
  8       10      19       4       8       2       3
  9        8      14       5      10       3       5
 10        4       7       1       2       2       4
 11        0       0       0       0       0       0
************************************************************************
SCENARIOS:
------------------------------------------------------------------------
RESOURCE k = 1
s = 1: (0, 24, 117, 47, 10, 76, 12, 10, 154, 43, 33, 0)
s = 2: (0, 19, 93, 69, 27, 43, 21, 18, 175, 87, 20, 0)
s = 3: (0, 17, 146, 45, 17, 71, 11, 13, 81, 92, 19, 0)
s = 4: (0, 13, 100, 43, 17, 58, 18, 10, 119, 52, 39, 0)
s = 5: (0, 27, 128, 57, 28, 49, 21, 18, 112, 66, 18, 0)
s = 6: (0, 17, 126, 56, 22, 79, 10, 13, 104, 41, 30, 0)
s = 7: (0, 20, 83, 42, 16, 67, 20, 18, 135, 54, 18, 0)
s = 8: (0, 18, 153, 54, 18, 83, 11, 12, 77, 70, 25, 0)
s = 9: (0, 13, 178, 45, 14, 76, 15, 14, 162, 60, 26, 0)
s = 10: (0, 17, 180, 65, 18, 97, 26, 12, 94, 123, 20, 0)
s = 11: (0, 32, 126, 48, 19, 39, 15, 17, 186, 95, 15, 0)
s = 12: (0, 14, 181, 75, 12, 91, 15, 11, 133, 50, 14, 0)
s = 13: (0, 14, 187, 72, 12, 38, 10, 11, 114, 63, 29, 0)
s = 14: (0, 13, 142, 40, 21, 62, 15, 16, 79, 59, 23, 0)
s = 15: (0, 32, 117, 56, 24, 74, 24, 9, 83, 74, 24, 0)
s = 16: (0, 15, 235, 38, 17, 49, 12, 12, 126, 98, 19, 0)
s = 17: (0, 20, 100, 58, 23, 46, 18, 16, 109, 58, 27, 0)
s = 18: (0, 19, 117, 39, 10, 40, 17, 23, 84, 124, 28, 0)
s = 19: (0, 31, 206, 44, 21, 54, 16, 19, 130, 64, 23, 0)
s = 20: (0, 16, 100, 45, 17, 77, 13, 10, 126, 63, 21, 0)
s = 21: (0, 15, 96, 44, 14, 62, 18, 17, 77, 39, 27, 0)
s = 22: (0, 22, 128, 34, 15, 41, 18, 10, 81, 78, 18, 0)
s = 23: (0, 18, 111, 50, 13, 105, 24, 19, 131, 73, 16, 0)
s = 24: (0, 13, 79, 42, 19, 66, 12, 16, 148, 54, 26, 0)
s = 25: (0, 17, 197, 29, 25, 46, 16, 16, 72, 55, 26, 0)
s = 26: (0, 23, 86, 66, 21, 57, 18, 12, 95, 75, 29, 0)
s = 27: (0, 13, 96, 64, 10, 93, 13, 11, 77, 96, 17, 0)
s = 28: (0, 23, 138, 34, 12, 57, 16, 15, 140, 89, 14, 0)
s = 29: (0, 16, 182, 61, 18, 91, 12, 18, 84, 107, 18, 0)
s = 30: (0, 37, 80, 63, 15, 83, 20, 15, 144, 89, 19, 0)
s = 31: (0, 30, 137, 86, 16, 102, 20, 13, 121, 97, 34, 0)
s = 32: (0, 22, 173, 61, 20, 61, 14, 11, 197, 64, 15, 0)
s = 33: (0, 30, 166, 55, 10, 83, 16, 13, 79, 113, 17, 0)
s = 34: (0, 18, 90, 48, 10, 74, 19, 14, 106, 87, 14, 0)
s = 35: (0, 27, 108, 42, 14, 46, 16, 18, 139, 73, 39, 0)
s = 36: (0, 16, 128, 65, 14, 89, 14, 10, 124, 53, 23, 0)
s = 37: (0, 14, 124, 32, 13, 53, 18, 12, 114, 45, 14, 0)
s = 38: (0, 12, 116, 32, 19, 35, 13, 10, 98, 51, 18, 0)
s = 39: (0, 21, 113, 57, 11, 56, 17, 12, 106, 70, 31, 0)
s = 40: (0, 21, 97, 34, 18, 73, 10, 15, 132, 65, 34, 0)
s = 41: (0, 23, 116, 35, 21, 48, 18, 15, 100, 64, 29, 0)
s = 42: (0, 24, 186, 76, 30, 58, 17, 15, 77, 95, 13, 0)
s = 43: (0, 17, 189, 39, 18, 54, 14, 12, 124, 51, 18, 0)
s = 44: (0, 15, 147, 47, 23, 95, 10, 12, 129, 69, 31, 0)
s = 45: (0, 31, 98, 71, 12, 40, 15, 11, 140, 82, 21, 0)
s = 46: (0, 17, 93, 45, 21, 99, 16, 14, 128, 64, 20, 0)
s = 47: (0, 27, 87, 41, 13, 61, 16, 12, 151, 97, 13, 0)
s = 48: (0, 25, 242, 43, 17, 47, 15, 11, 95, 55, 15, 0)
s = 49: (0, 23, 161, 52, 11, 69, 18, 17, 85, 49, 23, 0)
s = 50: (0, 22, 132, 56, 21, 39, 13, 14, 73, 90, 16, 0)
s = 51: (0, 19, 157, 65, 15, 59, 16, 17, 179, 63, 19, 0)
s = 52: (0, 22, 238, 32, 14, 67, 20, 19, 77, 87, 22, 0)
s = 53: (0, 16, 122, 80, 28, 53, 18, 18, 82, 59, 27, 0)
s = 54: (0, 13, 169, 64, 19, 56, 18, 19, 116, 73, 18, 0)
s = 55: (0, 22, 179, 42, 11, 53, 20, 12, 91, 45, 38, 0)
s = 56: (0, 19, 162, 82, 19, 107, 17, 9, 65, 78, 19, 0)
s = 57: (0, 21, 144, 53, 24, 73, 17, 9, 114, 100, 15, 0)
s = 58: (0, 24, 157, 48, 24, 44, 15, 13, 108, 57, 19, 0)
s = 59: (0, 24, 209, 56, 14, 46, 23, 10, 86, 53, 18, 0)
s = 60: (0, 22, 146, 55, 14, 49, 12, 12, 135, 74, 23, 0)
s = 61: (0, 27, 92, 78, 18, 68, 16, 10, 145, 46, 19, 0)
s = 62: (0, 29, 85, 31, 13, 49, 20, 12, 113, 41, 16, 0)
s = 63: (0, 19, 116, 34, 10, 37, 17, 19, 110, 68, 17, 0)
s = 64: (0, 37, 145, 75, 27, 71, 18, 14, 96, 52, 21, 0)
s = 65: (0, 15, 90, 77, 15, 78, 13, 14, 101, 70, 25, 0)
s = 66: (0, 12, 131, 64, 19, 54, 21, 15, 82, 72, 18, 0)
s = 67: (0, 16, 113, 72, 17, 67, 22, 16, 99, 55, 24, 0)
s = 68: (0, 19, 146, 54, 10, 81, 15, 11, 127, 54, 21, 0)
s = 69: (0, 16, 129, 49, 18, 47, 26, 11, 94, 64, 23, 0)
s = 70: (0, 13, 134, 34, 33, 102, 19, 16, 73, 53, 20, 0)
s = 71: (0, 16, 105, 47, 16, 44, 16, 18, 116, 79, 27, 0)
s = 72: (0, 17, 150, 42, 20, 37, 11, 12, 65, 62, 17, 0)
s = 73: (0, 21, 181, 68, 12, 57, 15, 17, 148, 73, 25, 0)
s = 74: (0, 24, 99, 78, 14, 68, 16, 21, 176, 85, 15, 0)
s = 75: (0, 24, 123, 36, 11, 64, 22, 9, 107, 71, 22, 0)
s = 76: (0, 24, 124, 46, 12, 50, 20, 24, 117, 61, 14, 0)
s = 77: (0, 27, 82, 70, 13, 45, 20, 15, 133, 71, 32, 0)
s = 78: (0, 22, 173, 47, 20, 56, 13, 13, 103, 43, 15, 0)
s = 79: (0, 17, 100, 75, 13, 53, 25, 11, 100, 53, 35, 0)
s = 80: (0, 24, 115, 40, 19, 52, 17, 13, 105, 75, 14, 0)
s = 81: (0, 26, 100, 65, 18, 56, 12, 17, 114, 87, 17, 0)
s = 82: (0, 16, 173, 43, 18, 68, 22, 17, 133, 64, 23, 0)
s = 83: (0, 31, 142, 52, 12, 55, 12, 19, 124, 103, 18, 0)
s = 84: (0, 20, 191, 92, 31, 35, 13, 24, 73, 52, 20, 0)
s = 85: (0, 16, 129, 80, 10, 106, 13, 23, 191, 74, 15, 0)
s = 86: (0, 34, 88, 60, 11, 48, 19, 16, 69, 55, 15, 0)
s = 87: (0, 15, 143, 90, 17, 51, 19, 10, 144, 71, 15, 0)
s = 88: (0, 13, 96, 31, 16, 67, 16, 14, 131, 68, 15, 0)
s = 89: (0, 18, 87, 85, 18, 39, 21, 17, 98, 55, 20, 0)
s = 90: (0, 20, 107, 80, 16, 52, 17, 9, 148, 94, 17, 0)
s = 91: (0, 22, 111, 35, 13, 85, 19, 11, 128, 100, 24, 0)
s = 92: (0, 14, 98, 72, 11, 52, 12, 14, 62, 37, 34, 0)
s = 93: (0, 22, 128, 49, 13, 44, 21, 9, 136, 78, 26, 0)
s = 94: (0, 15, 101, 52, 26, 37, 20, 15, 85, 63, 20, 0)
s = 95: (0, 13, 92, 70, 17, 58, 16, 17, 175, 86, 15, 0)
s = 96: (0, 14, 115, 79, 12, 66, 27, 10, 149, 60, 16, 0)
s = 97: (0, 33, 135, 28, 18, 79, 17, 19, 112, 66, 30, 0)
s = 98: (0, 15, 138, 49, 22, 77, 13, 20, 150, 82, 30, 0)
s = 99: (0, 11, 121, 66, 22, 36, 9, 18, 132, 69, 13, 0)
s = 100: (0, 19, 120, 59, 19, 57, 16, 15, 129, 43, 25, 0)
s = 101: (0, 29, 118, 68, 15, 66, 17, 13, 176, 57, 31, 0)
s = 102: (0, 18, 162, 65, 18, 57, 18, 14, 138, 88, 15, 0)
s = 103: (0, 18, 91, 61, 17, 99, 16, 16, 184, 88, 18, 0)
s = 104: (0, 28, 122, 31, 13, 41, 20, 13, 151, 88, 19, 0)
s = 105: (0, 18, 198, 35, 19, 50, 19, 12, 67, 75, 23, 0)
s = 106: (0, 23, 193, 42, 13, 58, 21, 12, 129, 63, 18, 0)
s = 107: (0, 19, 108, 60, 14, 37, 20, 11, 94, 101, 16, 0)
s = 108: (0, 12, 96, 52, 18, 80, 20, 9, 175, 52, 12, 0)
s = 109: (0, 31, 121, 63, 18, 84, 10, 21, 102, 67, 17, 0)
s = 110: (0, 14, 93, 46, 12, 54, 11, 18, 75, 68, 16, 0)
s = 111: (0, 19, 164, 57, 20, 75, 11, 12, 76, 122, 15, 0)
s = 112: (0, 14, 153, 37, 22, 42, 17, 11, 86, 55, 21, 0)
s = 113: (0, 18, 121, 50, 27, 53, 25, 19, 120, 71, 16, 0)
s = 114: (0, 24, 108, 46, 14, 65, 11, 9, 86, 65, 13, 0)
s = 115: (0, 24, 191, 57, 17, 103, 18, 18, 130, 65, 16, 0)
s = 116: (0, 19, 75, 61, 15, 64, 13, 22, 109, 117, 17, 0)
s = 117: (0, 25, 132, 45, 17, 62, 19, 9, 162, 57, 14, 0)
s = 118: (0, 17, 146, 77, 11, 89, 17, 17, 119, 105, 23, 0)
s = 119: (0, 20, 119, 63, 19, 45, 22, 14, 103, 55, 28, 0)
s = 120: (0, 18, 116, 32, 16, 62, 13, 14, 103, 51, 18, 0)
s = 121: (0, 16, 94, 98, 16, 52, 12, 14, 75, 85, 15, 0)
s = 122: (0, 25, 134, 66, 14, 49, 19, 14, 119, 57, 18, 0)
s = 123: (0, 15, 133, 57, 10, 66, 26, 13, 85, 59, 19, 0)
s = 124: (0, 26, 119, 73, 14, 75, 17, 20, 82, 41, 33, 0)
s = 125: (0, 13, 91, 57, 19, 36, 24, 10, 146, 54, 18, 0)
s = 126: (0, 14, 122, 55, 13, 67, 13, 19, 92, 106, 19, 0)
s = 127: (0, 27, 183, 39, 19, 60, 21, 11, 78, 86, 12, 0)
s = 128: (0, 24, 92, 38, 14, 40, 18, 14, 104, 44, 25, 0)
s = 129: (0, 21, 76, 58, 12, 66, 18, 14, 144, 83, 16, 0)
s = 130: (0, 21, 79, 58, 11, 85, 24, 9, 127, 76, 18, 0)
s = 131: (0, 25, 95, 83, 20, 64, 12, 11, 111, 81, 14, 0)
s = 132: (0, 11, 171, 47, 19, 88, 14, 13, 108, 91, 26, 0)
s = 133: (0, 28, 139, 51, 21, 39, 19, 15, 66, 51, 20, 0)
s = 134: (0, 14, 152, 58, 20, 80, 23, 17, 121, 50, 25, 0)
s = 135: (0, 26, 142, 56, 19, 50, 14, 13, 73, 39, 14, 0)
s = 136: (0, 22, 134, 51, 12, 69, 20, 9, 96, 76, 15, 0)
s = 137: (0, 13, 114, 85, 16, 88, 14, 29, 87, 53, 23, 0)
s = 138: (0, 19, 127, 41, 17, 55, 16, 13, 92, 65, 27, 0)
s = 139: (0, 20, 101, 65, 25, 45, 23, 12, 114, 79, 16, 0)
s = 140: (0, 18, 88, 53, 14, 107, 15, 17, 76, 62, 22, 0)
s = 141: (0, 25, 190, 43, 24, 92, 17, 12, 114, 56, 26, 0)
s = 142: (0, 16, 203, 57, 15, 56, 26, 19, 115, 70, 27, 0)
s = 143: (0, 25, 179, 31, 20, 72, 29, 13, 135, 112, 15, 0)
s = 144: (0, 24, 216, 70, 16, 62, 18, 11, 93, 70, 12, 0)
s = 145: (0, 17, 104, 37, 22, 54, 14, 12, 163, 90, 27, 0)
s = 146: (0, 15, 157, 56, 15, 76, 14, 17, 113, 58, 17, 0)
s = 147: (0, 23, 163, 42, 18, 92, 26, 10, 115, 45, 22, 0)
s = 148: (0, 16, 89, 32, 11, 63, 17, 14, 180, 53, 20, 0)
s = 149: (0, 19, 124, 64, 11, 50, 20, 20, 193, 47, 17, 0)
s = 150: (0, 17, 129, 79, 17, 45, 10, 18, 79, 50, 31, 0)
s = 151: (0, 22, 136, 39, 14, 57, 12, 14, 105, 48, 19, 0)
s = 152: (0, 23, 173, 32, 15, 44, 14, 18, 121, 52, 27, 0)
s = 153: (0, 23, 148, 71, 18, 40, 17, 9, 149, 79, 29, 0)
s = 154: (0, 19, 117, 77, 18, 51, 17, 14, 98, 92, 22, 0)
s = 155: (0, 13, 181, 53, 16, 52, 19, 15, 155, 61, 31, 0)
s = 156: (0, 18, 154, 47, 12, 74, 22, 19, 192, 64, 15, 0)
s = 157: (0, 14, 91, 47, 11, 33, 14, 18, 67, 57, 33, 0)
s = 158: (0, 32, 126, 59, 16, 47, 22, 12, 101, 68, 15, 0)
s = 159: (0, 23, 101, 59, 28, 34, 24, 14, 87, 52, 15, 0)
s = 160: (0, 22, 219, 41, 16, 60, 10, 14, 113, 97, 23, 0)
s = 161: (0, 19, 205, 38, 16, 91, 22, 14, 79, 37, 14, 0)
s = 162: (0, 17, 106, 54, 19, 44, 18, 13, 110, 97, 16, 0)
s = 163: (0, 17, 113, 87, 21, 83, 13, 23, 111, 41, 19, 0)
s = 164: (0, 18, 106, 42, 13, 83, 20, 13, 101, 85, 26, 0)
s = 165: (0, 17, 117, 40, 14, 41, 16, 19, 150, 94, 16, 0)
s = 166: (0, 18, 120, 49, 21, 52, 12, 18, 99, 65, 20, 0)
s = 167: (0, 18, 137, 74, 18, 83, 14, 12, 98, 42, 24, 0)
s = 168: (0, 34, 99, 29, 11, 65, 13, 21, 96, 54, 30, 0)
s = 169: (0, 20, 123, 72, 16, 62, 16, 12, 74, 87, 19, 0)
s = 170: (0, 17, 125, 66, 17, 48, 19, 16, 126, 86, 31, 0)
s = 171: (0, 18, 153, 90, 11, 66, 15, 18, 63, 64, 31, 0)
s = 172: (0, 17, 110, 49, 15, 57, 15, 13, 103, 76, 32, 0)
s = 173: (0, 33, 93, 49, 15, 62, 16, 22, 188, 75, 15, 0)
s = 174: (0, 17, 136, 51, 19, 101, 18, 15, 121, 80, 20, 0)
s = 175: (0, 27, 109, 43, 28, 80, 12, 13, 62, 71, 29, 0)
s = 176: (0, 28, 167, 74, 17, 39, 12, 9, 171, 84, 21, 0)
s = 177: (0, 25, 77, 50, 18, 48, 10, 12, 119, 53, 17, 0)
s = 178: (0, 18, 180, 55, 17, 82, 10, 10, 128, 89, 15, 0)
s = 179: (0, 23, 93, 65, 20, 98, 19, 10, 127, 55, 15, 0)
s = 180: (0, 29, 81, 41, 25, 65, 9, 15, 146, 56, 12, 0)
s = 181: (0, 30, 138, 37, 11, 44, 14, 10, 121, 58, 22, 0)
s = 182: (0, 15, 149, 47, 16, 83, 24, 13, 155, 57, 28, 0)
s = 183: (0, 21, 142, 50, 11, 72, 17, 19, 104, 62, 17, 0)
s = 184: (0, 35, 125, 61, 26, 102, 13, 14, 177, 58, 26, 0)
s = 185: (0, 25, 120, 47, 15, 46, 19, 16, 132, 102, 16, 0)
s = 186: (0, 31, 143, 44, 22, 86, 13, 10, 128, 50, 18, 0)
s = 187: (0, 14, 136, 46, 12, 59, 11, 10, 84, 109, 20, 0)
s = 188: (0, 30, 170, 50, 16, 46, 26, 17, 88, 61, 30, 0)
s = 189: (0, 29, 126, 73, 12, 66, 17, 16, 108, 76, 31, 0)
s = 190: (0, 22, 248, 53, 13, 66, 16, 11, 68, 90, 28, 0)
s = 191: (0, 25, 101, 78, 18, 53, 24, 13, 132, 99, 19, 0)
s = 192: (0, 33, 80, 54, 14, 46, 30, 11, 139, 60, 19, 0)
s = 193: (0, 35, 199, 43, 18, 46, 15, 12, 99, 81, 38, 0)
s = 194: (0, 19, 105, 45, 21, 67, 20, 28, 102, 65, 26, 0)
s = 195: (0, 26, 125, 55, 11, 43, 21, 11, 116, 53, 29, 0)
s = 196: (0, 24, 132, 30, 17, 73, 21, 16, 104, 67, 17, 0)
s = 197: (0, 27, 92, 75, 16, 95, 12, 12, 174, 81, 25, 0)
s = 198: (0, 19, 157, 65, 24, 105, 16, 11, 109, 79, 17, 0)
s = 199: (0, 18, 96, 46, 13, 40, 11, 11, 114, 107, 21, 0)
s = 200: (0, 27, 165, 39, 17, 34, 15, 15, 108, 79, 31, 0)
------------------------------------------------------------------------
RESOURCE k = 2
s = 1: (0, 24, 55, 26, 5, 41, 9, 6, 65, 31, 10, 0)
s = 2: (0, 19, 44, 38, 13, 23, 16, 10, 74, 62, 6, 0)
s = 3: (0, 17, 68, 25, 8, 38, 9, 8, 34, 66, 6, 0)
s = 4: (0, 13, 47, 24, 8, 31, 13, 6, 51, 37, 11, 0)
s = 5: (0, 27, 60, 32, 13, 27, 16, 11, 47, 47, 6, 0)
s = 6: (0, 17, 59, 32, 11, 42, 8, 8, 44, 29, 9, 0)
s = 7: (0, 20, 39, 24, 8, 36, 15, 10, 57, 39, 6, 0)
s = 8: (0, 18, 72, 30, 9, 44, 8, 7, 33, 50, 7, 0)
s = 9: (0, 13, 83, 25, 7, 41, 12, 8, 69, 43, 8, 0)
s = 10: (0, 17, 84, 37, 9, 52, 20, 7, 40, 88, 6, 0)
s = 11: (0, 32, 59, 27, 9, 21, 12, 10, 78, 68, 5, 0)
s = 12: (0, 14, 85, 42, 6, 49, 11, 6, 56, 36, 4, 0)
s = 13: (0, 14, 88, 40, 6, 21, 7, 6, 48, 45, 9, 0)
s = 14: (0, 13, 67, 22, 10, 33, 11, 9, 33, 43, 7, 0)
s = 15: (0, 32, 55, 31, 11, 40, 18, 6, 35, 53, 7, 0)
s = 16: (0, 15, 110, 21, 8, 26, 9, 7, 53, 70, 6, 0)
s = 17: (0, 20, 47, 32, 11, 25, 14, 9, 46, 42, 8, 0)
s = 18: (0, 19, 55, 22, 5, 21, 13, 13, 36, 89, 8, 0)
s = 19: (0, 31, 97, 25, 10, 29, 12, 11, 55, 46, 7, 0)
s = 20: (0, 16, 47, 25, 8, 41, 10, 6, 53, 45, 6, 0)
s = 21: (0, 15, 45, 25, 7, 33, 13, 10, 33, 28, 8, 0)
s = 22: (0, 22, 60, 19, 7, 22, 14, 6, 34, 56, 5, 0)
s = 23: (0, 18, 52, 28, 7, 56, 18, 11, 56, 52, 5, 0)
s = 24: (0, 13, 37, 24, 9, 35, 9, 9, 63, 39, 8, 0)
s = 25: (0, 17, 92, 16, 12, 25, 12, 9, 31, 40, 8, 0)
s = 26: (0, 23, 41, 37, 10, 31, 14, 7, 40, 54, 9, 0)
s = 27: (0, 13, 45, 36, 5, 50, 10, 6, 33, 69, 5, 0)
s = 28: (0, 23, 65, 19, 6, 31, 12, 9, 59, 64, 4, 0)
s = 29: (0, 16, 85, 34, 9, 49, 9, 10, 35, 77, 6, 0)
s = 30: (0, 37, 38, 35, 7, 44, 15, 9, 61, 64, 6, 0)
s = 31: (0, 30, 64, 48, 8, 55, 15, 8, 51, 69, 10, 0)
s = 32: (0, 22, 81, 34, 9, 33, 10, 7, 83, 46, 5, 0)
s = 33: (0, 30, 78, 31, 5, 45, 12, 8, 33, 81, 5, 0)
s = 34: (0, 18, 42, 27, 5, 40, 14, 8, 45, 62, 4, 0)
s = 35: (0, 27, 51, 24, 7, 25, 12, 11, 59, 52, 11, 0)
s = 36: (0, 16, 60, 37, 7, 48, 11, 6, 53, 38, 7, 0)
s = 37: (0, 14, 58, 18, 6, 28, 14, 7, 48, 32, 4, 0)
s = 38: (0, 12, 54, 18, 9, 19, 10, 6, 42, 37, 5, 0)
s = 39: (0, 21, 53, 32, 6, 30, 13, 7, 45, 50, 9, 0)
s = 40: (0, 21, 46, 19, 9, 39, 8, 9, 56, 47, 10, 0)
s = 41: (0, 23, 54, 20, 10, 26, 14, 9, 42, 46, 9, 0)
s = 42: (0, 24, 87, 42, 15, 31, 13, 9, 33, 68, 4, 0)
s = 43: (0, 17, 89, 22, 9, 29, 11, 7, 53, 37, 6, 0)
s = 44: (0, 15, 69, 26, 11, 51, 7, 7, 55, 50, 9, 0)
s = 45: (0, 31, 46, 40, 6, 22, 12, 7, 59, 59, 6, 0)
s = 46: (0, 17, 44, 25, 10, 53, 12, 8, 54, 46, 6, 0)
s = 47: (0, 27, 41, 23, 6, 33, 12, 7, 64, 69, 4, 0)
s = 48: (0, 25, 113, 24, 8, 25, 12, 6, 40, 39, 5, 0)
s = 49: (0, 23, 75, 29, 5, 37, 14, 10, 36, 35, 7, 0)
s = 50: (0, 22, 62, 31, 10, 21, 10, 8, 31, 65, 5, 0)
s = 51: (0, 19, 74, 37, 8, 32, 12, 10, 76, 45, 6, 0)
s = 52: (0, 22, 111, 18, 7, 36, 15, 11, 33, 62, 7, 0)
s = 53: (0, 16, 57, 45, 13, 29, 14, 11, 35, 42, 8, 0)
s = 54: (0, 13, 79, 36, 9, 30, 14, 11, 49, 53, 5, 0)
s = 55: (0, 22, 84, 24, 6, 29, 15, 7, 39, 32, 11, 0)
s = 56: (0, 19, 76, 46, 9, 57, 13, 5, 28, 56, 6, 0)
s = 57: (0, 21, 67, 30, 11, 39, 13, 5, 48, 72, 5, 0)
s = 58: (0, 24, 74, 27, 12, 24, 11, 8, 46, 41, 6, 0)
s = 59: (0, 24, 98, 32, 7, 25, 17, 6, 37, 38, 5, 0)
s = 60: (0, 22, 68, 31, 7, 26, 9, 7, 57, 53, 7, 0)
s = 61: (0, 27, 43, 43, 9, 37, 12, 6, 62, 33, 6, 0)
s = 62: (0, 29, 40, 17, 6, 27, 15, 7, 48, 30, 5, 0)
s = 63: (0, 19, 54, 19, 5, 20, 13, 11, 47, 49, 5, 0)
s = 64: (0, 37, 68, 42, 13, 38, 13, 8, 41, 37, 6, 0)
s = 65: (0, 15, 42, 43, 7, 42, 10, 8, 43, 50, 7, 0)
s = 66: (0, 12, 61, 36, 9, 29, 16, 9, 35, 52, 5, 0)
s = 67: (0, 16, 53, 40, 8, 36, 17, 9, 42, 39, 7, 0)
s = 68: (0, 19, 68, 30, 5, 44, 11, 7, 54, 39, 6, 0)
s = 69: (0, 16, 60, 28, 9, 25, 20, 6, 40, 46, 7, 0)
s = 70: (0, 13, 63, 19, 16, 55, 14, 10, 31, 38, 6, 0)
s = 71: (0, 16, 49, 26, 8, 24, 12, 10, 49, 56, 8, 0)
s = 72: (0, 17, 70, 23, 10, 20, 8, 7, 28, 44, 5, 0)
s = 73: (0, 21, 85, 38, 6, 31, 11, 10, 63, 52, 7, 0)
s = 74: (0, 24, 46, 44, 7, 37, 12, 12, 74, 61, 5, 0)
s = 75: (0, 24, 58, 20, 6, 34, 16, 5, 45, 51, 7, 0)
s = 76: (0, 24, 58, 26, 6, 27, 15, 14, 50, 43, 4, 0)
s = 77: (0, 27, 39, 39, 6, 24, 15, 9, 56, 51, 10, 0)
s = 78: (0, 22, 81, 26, 10, 30, 10, 7, 44, 31, 5, 0)
s = 79: (0, 17, 47, 42, 7, 28, 19, 6, 42, 38, 10, 0)
s = 80: (0, 24, 54, 23, 9, 28, 13, 7, 44, 54, 4, 0)
s = 81: (0, 26, 47, 37, 9, 30, 9, 10, 48, 63, 5, 0)
s = 82: (0, 16, 81, 24, 9, 37, 17, 10, 56, 46, 7, 0)
s = 83: (0, 31, 66, 29, 6, 29, 9, 11, 53, 74, 5, 0)
s = 84: (0, 20, 90, 51, 15, 19, 10, 14, 31, 37, 6, 0)
s = 85: (0, 16, 61, 45, 5, 57, 10, 13, 81, 53, 5, 0)
s = 86: (0, 34, 41, 33, 5, 26, 14, 9, 30, 39, 5, 0)
s = 87: (0, 15, 67, 50, 8, 28, 14, 6, 61, 51, 5, 0)
s = 88: (0, 13, 45, 17, 8, 36, 12, 8, 55, 48, 5, 0)
s = 89: (0, 18, 41, 47, 9, 21, 16, 10, 41, 40, 6, 0)
s = 90: (0, 20, 50, 44, 8, 28, 13, 5, 62, 67, 5, 0)
s = 91: (0, 22, 52, 19, 6, 46, 14, 7, 54, 72, 7, 0)
s = 92: (0, 14, 46, 40, 6, 28, 9, 8, 26, 27, 10, 0)
s = 93: (0, 22, 60, 28, 6, 23, 16, 5, 58, 56, 8, 0)
s = 94: (0, 15, 47, 29, 12, 20, 15, 9, 36, 45, 6, 0)
s = 95: (0, 13, 43, 39, 8, 31, 12, 10, 74, 61, 5, 0)
s = 96: (0, 14, 54, 44, 6, 35, 20, 6, 63, 43, 5, 0)
s = 97: (0, 33, 63, 16, 9, 42, 13, 11, 47, 47, 9, 0)
s = 98: (0, 15, 65, 27, 11, 41, 10, 12, 64, 59, 9, 0)
s = 99: (0, 11, 57, 37, 11, 19, 7, 11, 56, 49, 4, 0)
s = 100: (0, 19, 56, 33, 9, 31, 12, 9, 55, 31, 8, 0)
s = 101: (0, 29, 55, 38, 7, 35, 13, 8, 75, 41, 9, 0)
s = 102: (0, 18, 76, 36, 9, 31, 14, 8, 58, 63, 5, 0)
s = 103: (0, 18, 43, 34, 8, 53, 12, 9, 78, 63, 5, 0)
s = 104: (0, 28, 57, 17, 7, 22, 15, 8, 64, 63, 6, 0)
s = 105: (0, 18, 93, 19, 9, 27, 14, 7, 29, 54, 7, 0)
s = 106: (0, 23, 90, 23, 6, 31, 16, 7, 55, 45, 5, 0)
s = 107: (0, 19, 51, 34, 7, 20, 15, 7, 40, 72, 5, 0)
s = 108: (0, 12, 45, 29, 9, 43, 15, 6, 74, 37, 4, 0)
s = 109: (0, 31, 57, 35, 9, 45, 8, 12, 43, 48, 5, 0)
s = 110: (0, 14, 44, 26, 6, 29, 8, 10, 32, 49, 5, 0)
s = 111: (0, 19, 77, 32, 9, 40, 8, 7, 32, 87, 5, 0)
s = 112: (0, 14, 72, 21, 11, 23, 13, 6, 36, 39, 6, 0)
s = 113: (0, 18, 57, 28, 13, 28, 19, 11, 51, 51, 5, 0)
s = 114: (0, 24, 50, 26, 7, 35, 8, 5, 36, 46, 4, 0)
s = 115: (0, 24, 89, 32, 8, 55, 14, 10, 55, 47, 5, 0)
s = 116: (0, 19, 35, 34, 7, 34, 10, 13, 46, 84, 5, 0)
s = 117: (0, 25, 62, 25, 8, 33, 14, 6, 68, 41, 4, 0)
s = 118: (0, 17, 68, 43, 6, 48, 13, 10, 50, 75, 7, 0)
s = 119: (0, 20, 56, 35, 9, 24, 16, 8, 43, 39, 8, 0)
s = 120: (0, 18, 55, 18, 8, 33, 10, 8, 44, 37, 6, 0)
s = 121: (0, 16, 44, 55, 8, 28, 9, 8, 32, 61, 5, 0)
s = 122: (0, 25, 63, 37, 7, 27, 14, 8, 50, 41, 6, 0)
s = 123: (0, 15, 62, 32, 5, 35, 20, 8, 36, 42, 6, 0)
s = 124: (0, 26, 56, 41, 7, 40, 13, 12, 35, 30, 10, 0)
s = 125: (0, 13, 43, 32, 9, 19, 18, 6, 62, 39, 5, 0)
s = 126: (0, 14, 57, 31, 6, 36, 10, 11, 39, 76, 6, 0)
s = 127: (0, 27, 86, 22, 9, 32, 16, 6, 33, 62, 4, 0)
s = 128: (0, 24, 43, 22, 7, 21, 14, 8, 44, 32, 8, 0)
s = 129: (0, 21, 36, 33, 6, 36, 13, 8, 61, 60, 5, 0)
s = 130: (0, 21, 37, 32, 6, 46, 18, 5, 54, 54, 5, 0)
s = 131: (0, 25, 45, 46, 10, 35, 9, 6, 47, 58, 4, 0)
s = 132: (0, 11, 80, 26, 9, 47, 10, 8, 46, 65, 8, 0)
s = 133: (0, 28, 65, 28, 10, 21, 15, 9, 28, 37, 6, 0)
s = 134: (0, 14, 71, 32, 10, 43, 18, 10, 51, 36, 8, 0)
s = 135: (0, 26, 66, 31, 9, 27, 11, 8, 31, 28, 4, 0)
s = 136: (0, 22, 63, 28, 6, 37, 15, 6, 41, 54, 5, 0)
s = 137: (0, 13, 54, 47, 8, 47, 11, 17, 37, 38, 7, 0)
s = 138: (0, 19, 59, 23, 8, 30, 12, 8, 39, 47, 8, 0)
s = 139: (0, 20, 47, 36, 12, 24, 18, 7, 48, 56, 5, 0)
s = 140: (0, 18, 41, 30, 7, 57, 11, 10, 32, 45, 7, 0)
s = 141: (0, 25, 89, 24, 12, 49, 13, 7, 48, 40, 8, 0)
s = 142: (0, 16, 95, 32, 7, 30, 20, 11, 49, 50, 8, 0)
s = 143: (0, 25, 84, 17, 9, 38, 22, 8, 57, 80, 5, 0)
s = 144: (0, 24, 101, 39, 8, 33, 13, 7, 40, 50, 4, 0)
s = 145: (0, 17, 49, 21, 11, 29, 10, 7, 69, 65, 8, 0)
s = 146: (0, 15, 73, 32, 7, 41, 11, 10, 48, 42, 5, 0)
s = 147: (0, 23, 77, 24, 9, 49, 20, 6, 49, 32, 7, 0)
s = 148: (0, 16, 42, 18, 5, 34, 13, 8, 76, 38, 6, 0)
s = 149: (0, 19, 58, 36, 6, 27, 15, 12, 81, 34, 5, 0)
s = 150: (0, 17, 60, 44, 8, 24, 7, 11, 33, 36, 9, 0)
s = 151: (0, 22, 64, 22, 7, 31, 9, 8, 44, 34, 6, 0)
s = 152: (0, 23, 81, 18, 8, 24, 11, 10, 51, 37, 8, 0)
s = 153: (0, 23, 70, 39, 9, 21, 13, 5, 63, 56, 9, 0)
s = 154: (0, 19, 55, 43, 9, 28, 13, 8, 42, 66, 7, 0)
s = 155: (0, 13, 85, 29, 8, 28, 14, 9, 66, 44, 9, 0)
s = 156: (0, 18, 72, 26, 6, 40, 17, 11, 81, 46, 5, 0)
s = 157: (0, 14, 43, 26, 6, 18, 11, 10, 29, 41, 10, 0)
s = 158: (0, 32, 59, 33, 8, 25, 17, 7, 43, 48, 5, 0)
s = 159: (0, 23, 47, 33, 14, 18, 18, 8, 37, 38, 5, 0)
s = 160: (0, 22, 103, 23, 8, 32, 8, 8, 48, 70, 7, 0)
s = 161: (0, 19, 96, 22, 8, 49, 16, 8, 33, 27, 4, 0)
s = 162: (0, 17, 50, 30, 9, 24, 14, 8, 47, 69, 5, 0)
s = 163: (0, 17, 53, 49, 10, 45, 10, 14, 47, 29, 6, 0)
s = 164: (0, 18, 50, 24, 7, 44, 15, 7, 43, 61, 8, 0)
s = 165: (0, 17, 55, 22, 7, 22, 12, 11, 64, 67, 5, 0)
s = 166: (0, 18, 56, 27, 10, 28, 9, 10, 42, 46, 6, 0)
s = 167: (0, 18, 64, 41, 9, 45, 10, 7, 42, 30, 7, 0)
s = 168: (0, 34, 46, 16, 5, 35, 10, 12, 41, 39, 9, 0)
s = 169: (0, 20, 58, 40, 8, 33, 12, 7, 31, 62, 6, 0)
s = 170: (0, 17, 59, 37, 8, 26, 14, 9, 53, 61, 9, 0)
s = 171: (0, 18, 72, 50, 5, 36, 11, 11, 27, 46, 9, 0)
s = 172: (0, 17, 52, 27, 7, 31, 12, 8, 43, 54, 9, 0)
s = 173: (0, 33, 44, 27, 7, 33, 12, 13, 79, 54, 5, 0)
s = 174: (0, 17, 64, 29, 9, 54, 14, 9, 51, 57, 6, 0)
s = 175: (0, 27, 51, 24, 14, 43, 9, 8, 27, 51, 9, 0)
s = 176: (0, 28, 78, 41, 8, 21, 9, 6, 72, 60, 6, 0)
s = 177: (0, 25, 36, 28, 9, 26, 8, 7, 51, 38, 5, 0)
s = 178: (0, 18, 84, 31, 8, 44, 7, 6, 54, 64, 5, 0)
s = 179: (0, 23, 44, 36, 10, 53, 15, 6, 54, 40, 5, 0)
s = 180: (0, 29, 38, 23, 12, 35, 7, 9, 62, 40, 4, 0)
s = 181: (0, 30, 65, 21, 6, 24, 10, 6, 51, 42, 7, 0)
s = 182: (0, 15, 70, 26, 8, 44, 18, 8, 66, 41, 8, 0)
s = 183: (0, 21, 67, 28, 6, 39, 13, 11, 44, 44, 5, 0)
s = 184: (0, 35, 59, 34, 12, 55, 10, 8, 75, 41, 8, 0)
s = 185: (0, 25, 56, 26, 7, 25, 14, 9, 56, 73, 5, 0)
s = 186: (0, 31, 67, 24, 10, 46, 10, 6, 54, 36, 5, 0)
s = 187: (0, 14, 64, 26, 6, 32, 8, 6, 35, 78, 6, 0)
s = 188: (0, 30, 79, 28, 8, 25, 19, 10, 37, 44, 9, 0)
s = 189: (0, 29, 59, 41, 6, 35, 13, 10, 46, 55, 9, 0)
s = 190: (0, 22, 116, 30, 6, 35, 12, 6, 29, 65, 8, 0)
s = 191: (0, 25, 48, 43, 9, 29, 18, 8, 56, 71, 6, 0)
s = 192: (0, 33, 37, 30, 7, 25, 22, 6, 59, 43, 6, 0)
s = 193: (0, 35, 93, 24, 9, 25, 12, 7, 42, 58, 11, 0)
s = 194: (0, 19, 49, 25, 10, 36, 15, 16, 43, 47, 8, 0)
s = 195: (0, 26, 59, 31, 6, 23, 16, 6, 49, 38, 9, 0)
s = 196: (0, 24, 62, 17, 8, 39, 16, 9, 44, 48, 5, 0)
s = 197: (0, 27, 43, 42, 8, 51, 9, 7, 73, 58, 7, 0)
s = 198: (0, 19, 74, 37, 12, 56, 12, 6, 46, 56, 5, 0)
s = 199: (0, 18, 45, 26, 6, 22, 8, 6, 48, 77, 6, 0)
s = 200: (0, 27, 77, 22, 8, 18, 11, 9, 46, 56, 9, 0)
------------------------------------------------------------------------
RESOURCE k = 3
s = 1: (0, 24, 78, 13, 3, 26, 15, 3, 25, 16, 19, 0)
s = 2: (0, 19, 62, 19, 7, 15, 26, 4, 28, 31, 11, 0)
s = 3: (0, 17, 97, 13, 4, 24, 14, 3, 13, 33, 11, 0)
s = 4: (0, 13, 67, 12, 4, 20, 22, 3, 19, 19, 22, 0)
s = 5: (0, 27, 86, 16, 7, 17, 26, 4, 18, 24, 11, 0)
s = 6: (0, 17, 84, 16, 6, 27, 12, 3, 17, 15, 17, 0)
s = 7: (0, 20, 55, 12, 4, 23, 25, 4, 22, 20, 11, 0)
s = 8: (0, 18, 102, 15, 5, 28, 14, 3, 13, 25, 14, 0)
s = 9: (0, 13, 119, 13, 4, 26, 19, 3, 26, 22, 15, 0)
s = 10: (0, 17, 120, 19, 5, 33, 32, 3, 15, 44, 12, 0)
s = 11: (0, 32, 84, 14, 5, 13, 19, 4, 30, 34, 9, 0)
s = 12: (0, 14, 121, 21, 3, 31, 19, 3, 21, 18, 8, 0)
s = 13: (0, 14, 125, 20, 3, 13, 12, 3, 18, 23, 17, 0)
s = 14: (0, 13, 95, 11, 5, 21, 19, 4, 13, 22, 13, 0)
s = 15: (0, 32, 78, 16, 6, 25, 30, 2, 14, 27, 14, 0)
s = 16: (0, 15, 157, 11, 4, 17, 15, 3, 20, 35, 11, 0)
s = 17: (0, 20, 67, 16, 6, 16, 22, 4, 18, 21, 16, 0)
s = 18: (0, 19, 78, 11, 3, 14, 21, 5, 14, 45, 16, 0)
s = 19: (0, 31, 138, 13, 5, 18, 19, 4, 21, 23, 14, 0)
s = 20: (0, 16, 67, 13, 4, 26, 16, 3, 20, 23, 12, 0)
s = 21: (0, 15, 64, 13, 4, 21, 22, 4, 13, 14, 16, 0)
s = 22: (0, 22, 86, 10, 4, 14, 22, 3, 13, 28, 10, 0)
s = 23: (0, 18, 74, 14, 4, 35, 30, 5, 21, 26, 10, 0)
s = 24: (0, 13, 53, 12, 5, 22, 15, 4, 24, 20, 15, 0)
s = 25: (0, 17, 131, 8, 6, 16, 20, 4, 12, 20, 15, 0)
s = 26: (0, 23, 58, 19, 5, 19, 23, 3, 15, 27, 17, 0)
s = 27: (0, 13, 64, 18, 3, 31, 16, 3, 13, 35, 10, 0)
s = 28: (0, 23, 92, 10, 3, 19, 19, 4, 23, 32, 8, 0)
s = 29: (0, 16, 121, 17, 5, 31, 14, 4, 14, 39, 11, 0)
s = 30: (0, 37, 53, 18, 4, 28, 25, 4, 23, 32, 11, 0)
s = 31: (0, 30, 91, 24, 4, 34, 25, 3, 20, 35, 20, 0)
s = 32: (0, 22, 115, 17, 5, 21, 17, 3, 32, 23, 9, 0)
s = 33: (0, 30, 111, 16, 3, 28, 20, 3, 13, 41, 10, 0)
s = 34: (0, 18, 60, 14, 3, 25, 23, 3, 17, 31, 8, 0)
s = 35: (0, 27, 72, 12, 4, 16, 20, 4, 22, 26, 22, 0)
s = 36: (0, 16, 86, 19, 4, 30, 17, 2, 20, 19, 13, 0)
s = 37: (0, 14, 83, 9, 3, 18, 23, 3, 18, 16, 8, 0)
s = 38: (0, 12, 78, 9, 5, 12, 16, 3, 16, 19, 10, 0)
s = 39: (0, 21, 75, 16, 3, 19, 21, 3, 17, 25, 18, 0)
s = 40: (0, 21, 65, 10, 5, 25, 13, 4, 21, 24, 20, 0)
s = 41: (0, 23, 77, 10, 5, 16, 22, 4, 16, 23, 17, 0)
s = 42: (0, 24, 124, 21, 8, 20, 21, 4, 13, 34, 8, 0)
s = 43: (0, 17, 126, 11, 5, 18, 18, 3, 20, 19, 11, 0)
s = 44: (0, 15, 98, 13, 6, 32, 12, 3, 21, 25, 18, 0)
s = 45: (0, 31, 66, 20, 3, 14, 19, 3, 23, 30, 12, 0)
s = 46: (0, 17, 62, 13, 5, 33, 20, 3, 21, 23, 11, 0)
s = 47: (0, 27, 58, 12, 3, 21, 20, 3, 24, 35, 7, 0)
s = 48: (0, 25, 162, 12, 4, 16, 19, 3, 15, 20, 9, 0)
s = 49: (0, 23, 107, 15, 3, 23, 23, 4, 14, 18, 13, 0)
s = 50: (0, 22, 88, 16, 5, 13, 16, 3, 12, 33, 9, 0)
s = 51: (0, 19, 105, 19, 4, 20, 19, 4, 29, 23, 11, 0)
s = 52: (0, 22, 159, 9, 4, 23, 25, 4, 13, 31, 13, 0)
s = 53: (0, 16, 82, 23, 7, 18, 23, 4, 13, 21, 16, 0)
s = 54: (0, 13, 113, 18, 5, 19, 22, 4, 19, 27, 10, 0)
s = 55: (0, 22, 119, 12, 3, 18, 25, 3, 15, 16, 22, 0)
s = 56: (0, 19, 108, 23, 5, 36, 21, 2, 11, 28, 11, 0)
s = 57: (0, 21, 96, 15, 6, 25, 21, 2, 18, 36, 9, 0)
s = 58: (0, 24, 105, 14, 6, 15, 18, 3, 17, 21, 11, 0)
s = 59: (0, 24, 139, 16, 4, 16, 28, 3, 14, 19, 10, 0)
s = 60: (0, 22, 97, 16, 4, 17, 15, 3, 22, 27, 13, 0)
s = 61: (0, 27, 61, 22, 5, 23, 20, 3, 23, 17, 11, 0)
s = 62: (0, 29, 57, 9, 3, 17, 25, 3, 18, 15, 10, 0)
s = 63: (0, 19, 77, 10, 3, 13, 21, 4, 18, 25, 10, 0)
s = 64: (0, 37, 97, 21, 7, 24, 22, 3, 16, 19, 12, 0)
s = 65: (0, 15, 60, 22, 4, 26, 16, 3, 16, 25, 14, 0)
s = 66: (0, 12, 88, 18, 5, 18, 26, 4, 13, 26, 10, 0)
s = 67: (0, 16, 76, 20, 4, 23, 28, 4, 16, 20, 14, 0)
s = 68: (0, 19, 98, 15, 3, 27, 19, 3, 20, 20, 12, 0)
s = 69: (0, 16, 86, 14, 5, 16, 33, 3, 15, 23, 13, 0)
s = 70: (0, 13, 89, 10, 8, 34, 23, 4, 12, 19, 12, 0)
s = 71: (0, 16, 70, 13, 4, 15, 20, 4, 19, 28, 16, 0)
s = 72: (0, 17, 100, 12, 5, 13, 14, 3, 11, 22, 10, 0)
s = 73: (0, 21, 121, 19, 3, 19, 19, 4, 24, 26, 14, 0)
s = 74: (0, 24, 66, 22, 4, 23, 19, 5, 28, 31, 9, 0)
s = 75: (0, 24, 82, 10, 3, 22, 27, 2, 17, 26, 13, 0)
s = 76: (0, 24, 83, 13, 3, 17, 25, 6, 19, 22, 8, 0)
s = 77: (0, 27, 55, 20, 3, 15, 25, 4, 21, 26, 19, 0)
s = 78: (0, 22, 115, 13, 5, 19, 16, 3, 17, 16, 9, 0)
s = 79: (0, 17, 67, 21, 4, 18, 32, 3, 16, 19, 20, 0)
s = 80: (0, 24, 77, 12, 5, 18, 21, 3, 17, 27, 8, 0)
s = 81: (0, 26, 67, 19, 5, 19, 15, 4, 18, 32, 10, 0)
s = 82: (0, 16, 116, 12, 5, 23, 28, 4, 21, 23, 13, 0)
s = 83: (0, 31, 95, 15, 3, 19, 15, 4, 20, 37, 10, 0)
s = 84: (0, 20, 128, 26, 8, 12, 17, 5, 12, 19, 12, 0)
s = 85: (0, 16, 86, 23, 3, 36, 16, 5, 31, 27, 9, 0)
s = 86: (0, 34, 59, 17, 3, 16, 23, 4, 11, 20, 9, 0)
s = 87: (0, 15, 95, 25, 4, 17, 24, 3, 23, 26, 9, 0)
s = 88: (0, 13, 64, 9, 4, 23, 20, 3, 21, 24, 9, 0)
s = 89: (0, 18, 58, 24, 5, 13, 26, 4, 16, 20, 12, 0)
s = 90: (0, 20, 72, 22, 4, 18, 21, 2, 24, 34, 10, 0)
s = 91: (0, 22, 74, 10, 3, 29, 23, 3, 21, 36, 14, 0)
s = 92: (0, 14, 65, 20, 3, 18, 15, 3, 10, 14, 20, 0)
s = 93: (0, 22, 85, 14, 3, 15, 26, 2, 22, 28, 15, 0)
s = 94: (0, 15, 67, 15, 6, 13, 25, 4, 14, 23, 12, 0)
s = 95: (0, 13, 61, 20, 4, 20, 20, 4, 28, 31, 9, 0)
s = 96: (0, 14, 77, 22, 3, 22, 33, 2, 24, 22, 9, 0)
s = 97: (0, 33, 90, 8, 5, 27, 22, 4, 18, 24, 18, 0)
s = 98: (0, 15, 92, 14, 6, 26, 16, 5, 24, 30, 18, 0)
s = 99: (0, 11, 81, 19, 6, 12, 11, 4, 21, 25, 8, 0)
s = 100: (0, 19, 80, 17, 5, 19, 20, 4, 21, 16, 15, 0)
s = 101: (0, 29, 79, 19, 4, 22, 21, 3, 28, 21, 18, 0)
s = 102: (0, 18, 108, 18, 5, 19, 22, 3, 22, 32, 9, 0)
s = 103: (0, 18, 61, 17, 4, 33, 20, 4, 29, 32, 10, 0)
s = 104: (0, 28, 81, 9, 4, 14, 25, 3, 24, 32, 11, 0)
s = 105: (0, 18, 132, 10, 5, 17, 23, 3, 11, 27, 13, 0)
s = 106: (0, 23, 129, 12, 3, 20, 26, 3, 21, 23, 10, 0)
s = 107: (0, 19, 72, 17, 4, 13, 24, 3, 15, 36, 9, 0)
s = 108: (0, 12, 64, 15, 5, 27, 24, 2, 28, 19, 7, 0)
s = 109: (0, 31, 81, 18, 5, 28, 12, 5, 16, 24, 10, 0)
s = 110: (0, 14, 62, 13, 3, 18, 13, 4, 12, 25, 9, 0)
s = 111: (0, 19, 110, 16, 5, 25, 13, 3, 12, 44, 9, 0)
s = 112: (0, 14, 102, 11, 6, 14, 22, 3, 14, 20, 12, 0)
s = 113: (0, 18, 81, 14, 7, 18, 31, 5, 19, 26, 10, 0)
s = 114: (0, 24, 72, 13, 4, 22, 14, 2, 14, 23, 8, 0)
s = 115: (0, 24, 127, 16, 4, 35, 22, 4, 21, 24, 9, 0)
s = 116: (0, 19, 50, 17, 4, 22, 16, 5, 18, 42, 10, 0)
s = 117: (0, 25, 88, 13, 4, 21, 24, 2, 26, 21, 8, 0)
s = 118: (0, 17, 97, 22, 3, 30, 21, 4, 19, 38, 13, 0)
s = 119: (0, 20, 80, 18, 5, 15, 27, 3, 17, 20, 16, 0)
s = 120: (0, 18, 78, 9, 4, 21, 16, 3, 17, 19, 11, 0)
s = 121: (0, 16, 63, 28, 4, 18, 15, 3, 12, 31, 9, 0)
s = 122: (0, 25, 89, 19, 4, 17, 24, 3, 19, 21, 11, 0)
s = 123: (0, 15, 89, 16, 3, 22, 32, 3, 14, 21, 11, 0)
s = 124: (0, 26, 79, 21, 4, 25, 21, 5, 13, 15, 19, 0)
s = 125: (0, 13, 61, 16, 5, 12, 30, 2, 23, 20, 10, 0)
s = 126: (0, 14, 82, 16, 3, 23, 16, 4, 15, 38, 11, 0)
s = 127: (0, 27, 122, 11, 5, 20, 26, 3, 13, 31, 7, 0)
s = 128: (0, 24, 62, 11, 4, 14, 22, 3, 17, 16, 15, 0)
s = 129: (0, 21, 51, 17, 3, 22, 22, 3, 23, 30, 10, 0)
s = 130: (0, 21, 53, 16, 3, 29, 29, 2, 20, 27, 10, 0)
s = 131: (0, 25, 64, 23, 5, 22, 15, 3, 18, 29, 8, 0)
s = 132: (0, 11, 114, 13, 5, 30, 17, 3, 17, 33, 15, 0)
s = 133: (0, 28, 93, 14, 5, 13, 24, 4, 11, 19, 11, 0)
s = 134: (0, 14, 102, 16, 5, 27, 29, 4, 20, 18, 15, 0)
s = 135: (0, 26, 95, 16, 5, 17, 17, 3, 12, 14, 8, 0)
s = 136: (0, 22, 89, 14, 3, 23, 25, 2, 16, 27, 9, 0)
s = 137: (0, 13, 76, 24, 4, 30, 18, 7, 14, 19, 13, 0)
s = 138: (0, 19, 85, 12, 4, 19, 20, 3, 15, 24, 16, 0)
s = 139: (0, 20, 68, 18, 6, 15, 29, 3, 18, 28, 9, 0)
s = 140: (0, 18, 59, 15, 4, 36, 19, 4, 12, 23, 13, 0)
s = 141: (0, 25, 127, 12, 6, 31, 21, 3, 18, 20, 15, 0)
s = 142: (0, 16, 135, 16, 4, 19, 33, 4, 19, 25, 16, 0)
s = 143: (0, 25, 120, 9, 5, 24, 36, 3, 22, 40, 9, 0)
s = 144: (0, 24, 144, 20, 4, 21, 22, 3, 15, 25, 7, 0)
s = 145: (0, 17, 70, 11, 6, 18, 17, 3, 26, 33, 15, 0)
s = 146: (0, 15, 105, 16, 4, 26, 18, 4, 18, 21, 10, 0)
s = 147: (0, 23, 109, 12, 5, 31, 33, 3, 19, 16, 13, 0)
s = 148: (0, 16, 60, 9, 3, 21, 21, 3, 29, 19, 12, 0)
s = 149: (0, 19, 83, 18, 3, 17, 24, 5, 31, 17, 10, 0)
s = 150: (0, 17, 86, 22, 4, 15, 12, 4, 13, 18, 18, 0)
s = 151: (0, 22, 91, 11, 4, 19, 15, 3, 17, 17, 11, 0)
s = 152: (0, 23, 115, 9, 4, 15, 18, 4, 20, 19, 16, 0)
s = 153: (0, 23, 99, 20, 5, 14, 21, 2, 24, 28, 17, 0)
s = 154: (0, 19, 78, 22, 5, 17, 21, 3, 16, 33, 13, 0)
s = 155: (0, 13, 121, 15, 4, 18, 23, 4, 25, 22, 18, 0)
s = 156: (0, 18, 103, 13, 3, 25, 28, 4, 31, 23, 9, 0)
s = 157: (0, 14, 61, 13, 3, 11, 18, 4, 11, 21, 19, 0)
s = 158: (0, 32, 84, 17, 4, 16, 28, 3, 16, 24, 9, 0)
s = 159: (0, 23, 67, 17, 7, 12, 30, 3, 14, 19, 9, 0)
s = 160: (0, 22, 146, 12, 4, 20, 13, 3, 18, 35, 14, 0)
s = 161: (0, 19, 137, 11, 4, 31, 27, 3, 13, 14, 8, 0)
s = 162: (0, 17, 71, 15, 5, 15, 22, 3, 18, 35, 9, 0)
s = 163: (0, 17, 76, 25, 5, 28, 16, 5, 18, 15, 11, 0)
s = 164: (0, 18, 71, 12, 4, 28, 25, 3, 16, 31, 15, 0)
s = 165: (0, 17, 78, 11, 4, 14, 20, 4, 24, 34, 9, 0)
s = 166: (0, 18, 80, 14, 5, 18, 14, 4, 16, 23, 11, 0)
s = 167: (0, 18, 92, 21, 5, 28, 17, 3, 16, 15, 14, 0)
s = 168: (0, 34, 66, 8, 3, 22, 17, 5, 16, 20, 17, 0)
s = 169: (0, 20, 82, 20, 4, 21, 20, 3, 12, 31, 11, 0)
s = 170: (0, 17, 84, 19, 4, 16, 23, 4, 20, 31, 18, 0)
s = 171: (0, 18, 102, 25, 3, 22, 18, 4, 10, 23, 18, 0)
s = 172: (0, 17, 74, 14, 4, 19, 19, 3, 17, 27, 18, 0)
s = 173: (0, 33, 62, 14, 4, 21, 19, 5, 30, 27, 9, 0)
s = 174: (0, 17, 91, 15, 5, 34, 22, 4, 19, 29, 12, 0)
s = 175: (0, 27, 73, 12, 7, 27, 15, 3, 10, 26, 17, 0)
s = 176: (0, 28, 111, 21, 4, 13, 15, 2, 27, 30, 12, 0)
s = 177: (0, 25, 52, 14, 5, 16, 13, 3, 19, 19, 10, 0)
s = 178: (0, 18, 120, 16, 4, 28, 12, 3, 21, 32, 9, 0)
s = 179: (0, 23, 62, 18, 5, 33, 24, 2, 21, 20, 9, 0)
s = 180: (0, 29, 54, 12, 6, 22, 11, 4, 23, 20, 7, 0)
s = 181: (0, 30, 92, 11, 3, 15, 17, 2, 20, 21, 13, 0)
s = 182: (0, 15, 100, 13, 4, 28, 30, 3, 25, 21, 16, 0)
s = 183: (0, 21, 95, 14, 3, 24, 21, 4, 17, 22, 10, 0)
s = 184: (0, 35, 83, 17, 6, 34, 16, 3, 28, 21, 15, 0)
s = 185: (0, 25, 80, 13, 4, 16, 23, 4, 21, 37, 10, 0)
s = 186: (0, 31, 95, 12, 5, 29, 17, 2, 21, 18, 10, 0)
s = 187: (0, 14, 91, 13, 3, 20, 13, 3, 14, 39, 12, 0)
s = 188: (0, 30, 113, 14, 4, 16, 32, 4, 14, 22, 17, 0)
s = 189: (0, 29, 84, 21, 3, 22, 21, 4, 17, 28, 18, 0)
s = 190: (0, 22, 165, 15, 3, 22, 20, 3, 11, 33, 16, 0)
s = 191: (0, 25, 68, 22, 5, 18, 29, 3, 21, 36, 11, 0)
s = 192: (0, 33, 53, 15, 4, 16, 37, 3, 22, 22, 11, 0)
s = 193: (0, 35, 133, 12, 5, 16, 19, 3, 16, 29, 22, 0)
s = 194: (0, 19, 70, 13, 5, 23, 24, 6, 16, 24, 15, 0)
s = 195: (0, 26, 84, 16, 3, 15, 26, 3, 19, 19, 17, 0)
s = 196: (0, 24, 88, 9, 4, 25, 26, 4, 17, 24, 10, 0)
s = 197: (0, 27, 62, 21, 4, 32, 15, 3, 28, 29, 14, 0)
s = 198: (0, 19, 105, 19, 6, 35, 20, 3, 18, 28, 10, 0)
s = 199: (0, 18, 64, 13, 3, 14, 14, 3, 18, 39, 12, 0)
s = 200: (0, 27, 110, 11, 4, 12, 19, 4, 18, 28, 18, 0)
************************************************************************
ES/LS-VALUES:
jobnr.   ES(i)    LS(i)
------------------------------------------------------------------------
  0        0        0
  1        0       60
  2        0       49
  3        0       52
  4        5       64
  5        5       58
  6       16       66
  7       19       70
  8       19       71
  9       21       73
 10       16       76
 11       30       82
************************************************************************
BIG-M-VALUES:
M1 = 93, M2 = 529
************************************************************************
